Set parameter TokenServer to value "hpc-licenses.hpcc.usc.edu"
Set parameter TimeLimit to value 3600
Gurobi Optimizer version 9.5.1 build v9.5.1rc2 (linux64)
Thread count: 20 physical cores, 20 logical processors, using up to 20 threads
Optimize a model with 6007 rows, 4529 columns and 24534 nonzeros
Model fingerprint: 0x926d1c20
Variable types: 4506 continuous, 23 integer (23 binary)
Coefficient statistics:
  Matrix range     [1e+00, 1e+00]
  Objective range  [3e-03, 1e+00]
  Bounds range     [1e+00, 1e+00]
  RHS range        [1e+00, 2e+01]
Found heuristic solution: objective 219.2990784
Presolve removed 1520 rows and 1515 columns
Presolve time: 0.05s
Presolved: 4487 rows, 3014 columns, 21975 nonzeros
Variable types: 2994 continuous, 20 integer (20 binary)

Root relaxation: objective 2.232651e+02, 1771 iterations, 0.04 seconds (0.07 work units)

    Nodes    |    Current Node    |     Objective Bounds      |     Work
 Expl Unexpl |  Obj  Depth IntInf | Incumbent    BestBd   Gap | It/Node Time

     0     0  223.26507    0    3  219.29908  223.26507  1.81%     -    0s
H    0     0                     219.7439408  223.26507  1.60%     -    0s
     0     0  223.16000    0    4  219.74394  223.16000  1.55%     -    0s
     0     0  223.05576    0    5  219.74394  223.05576  1.51%     -    0s
     0     0  223.05104    0    5  219.74394  223.05104  1.50%     -    0s
H    0     0                     222.5606703  223.02010  0.21%     -    0s
     0     0  222.85546    0    5  222.56067  222.85546  0.13%     -    0s
     0     0  222.84992    0    5  222.56067  222.84992  0.13%     -    0s

Cutting planes:
  MIR: 106
  RLT: 26
  Relax-and-lift: 1

Explored 1 nodes (2454 simplex iterations) in 0.66 seconds (0.46 work units)
Thread count was 20 (of 20 available processors)

Solution count 3: 222.561 219.744 219.299 

Optimal solution found (tolerance 1.00e-04)
Best objective 2.225606702985e+02, best bound 2.225606702985e+02, gap 0.0000%



#########node  1
V1.9
#########node  2
0.5833333333333333,0.4166666666666665
#########node  3
1.0,0.0


Total Solving Time 1.0380561351776123
obj value 222.56067029846656
Policy Regret train (Sum) 18.45955782590308
Best Treatment Found train (%) 39.800000000000004
treatment classification acc train (%) 49.2
Policy Regret test (Sum) 274.1591725630516
Best Treatment Found test (%) 42.61
treatment classification acc test (%) 50.07
